1488.43
0 47 5 26 12 59 8 52 34 4 2 0
0 50 3 30 37 15 57 13 19 14 7 0
0 36 71 29 38 31 32 49 22 21 74 28 6 0
0 1 43 40 9 58 10 11 46 0
0 20 53 39 55 44 56 33 51 17 0
0 66 65 54 60 61 64 42 41 18 16 62 45 0
0 72 25 24 23 63 73 69 70 48 27 35 67 75 68 0
